
 102   30
  10   10   10   10   10   10   10   10   10   10   10   10   10   10   10   10   10   10   10   10   10   10   10   10   10   10   10   10   10   10

   0   0   0   0   0   0   0   0   0   0   0   0   0   0   0   0   0   0   0   0   0   0   0   0   0   0   0   0   0   0   0  26 2 4 5 6 7 8 9 10 11 12 13 14 15 16 19 20 21 22 23 24 25 26 29 30 35 37 
   9   0   0   0   0   0   0   0   0   1   0   0   0   0   0   0   1   0   0   0   0   0   0   0   0   0   0   0   1   0   0   5 73 45 39 18 3 
   1   0   0   0   1   0   1   0   0   8   0   0   1   0   0   0   0   0   0   1   0   0   0   0   0   0   0   2   0   0   0  16 101 100 97 61 60 53 52 51 49 48 47 46 44 43 32 17 
  10   0   1   0   0   0   0   0   0   0   1   0   0   0   0   0   6   0   0   0   0   1   0   0   0   0   0   0   0   0   0  16 101 96 64 62 58 56 55 54 53 52 48 45 43 40 28 18 
   3   0   0   0   0   0   0   0   0   0   0   0   0   0   3   2   0   0   0   5   0   0   3   0   0   0   0   0   7   0   0  18 101 95 73 66 62 61 60 54 53 50 48 47 46 45 44 38 32 31 
   5   0   0   0   0   0   0   1   0   0   0   0   5   0   7   2   0   0   0   0   0   0   0   0   0   0   0   0   8   1   0  18 99 97 95 66 65 62 61 60 54 52 51 50 47 44 40 33 32 31 
   9   0   0   0   0   0   0   0   0   0   0   0   0   0   0  10   0   0   0   0   0   0   0   0   0   0   1   0   0   0   0  16 101 65 61 60 54 53 51 50 49 47 45 43 42 38 32 28 
  10   0   0   0   8   0   0   0   0   0   0   0   0   0   0   6   5   0   0   0   0   5   0   1   0   0   0   0   0   0   0  15 101 70 64 62 61 54 51 48 47 43 42 40 36 32 28 
   2   0   0   0   7   0   0   0   0   0   0   0   0   0   0   0   0   0   2   0   0   0   7   7   0   0   0   0   0   0   0  15 95 73 72 65 60 57 51 48 46 45 43 38 33 32 27 
   5   0   0   0   0   3   0   0   6   0   0   0   0   0   3   8   8   0   2   0   3   0   0   9   0   0   0   0   0   5   0  14 93 91 90 73 72 70 66 62 60 57 52 47 34 32 
   7   0   0   0   0   0   8   0   0   0   0   0   0   0   0   0   0   0   0   0   0   0   0   0   0   0   0   0   0   0   0  18 101 100 99 97 96 92 91 88 85 66 58 57 56 52 47 43 40 39 
   1   0   0   0   0   0   0   7   4   0   0   0   5   0   0   6   0   3   0   0   0   0   9   6   0   0   0   0   0   0   0  18 101 99 98 97 95 88 83 71 70 65 64 62 53 48 47 44 43 42 
   1   0   0   0   0   0   0   0   0   0   0   0   0   0  10   0   0   0   0   0   0   0   0   6   0   0   0   0   0   4   0  17 101 95 94 85 73 71 69 65 64 63 61 58 56 45 44 43 42 
   6   0   0   0   4   0   0   0   0   0   0   0   0   0   4   0   0   5   0   0   1   0   0   0   0   1   0   0   0   0   1  16 99 97 95 93 90 89 73 72 71 70 67 65 64 51 48 32 
   5   0   0   2   0   0  10   0   0   0   0   0   0   1   0   0   0   0   0   0   0   0   0   0   0   0   0   0   0   0   6  12 93 89 71 70 65 55 53 50 47 46 45 32 
   7   0   0   5   0   0   0   0   0   5   5   0   0   0   0   0   0   0   0   0   0   0   0   0   0   0   0   0   0   0   0  14 101 86 72 65 63 59 57 56 50 49 48 42 41 40 
   1   0   5   6   0   0   0   0   0   8   5   0   0   0   6   0   0   5   0   0   0   7   0   0   0   0   0   0   0   0   0  17 98 95 94 93 89 88 84 72 69 66 65 63 62 57 56 50 38 
   1   0   0   0   0   3   0   0   0   0   0   0   0   5   0   0   0   0   0   0   7   0   0   0   0   0   0   0   0   0   0  17 98 97 95 92 91 88 86 71 70 63 61 60 59 57 50 47 42 
   5   0   8   0   8   0   0   0   0   0   0   5   0   0   5   0   0   0   0   0   0   0   0   0   0   0   0   0   0   0   0  21 101 99 98 97 96 95 93 92 91 90 88 84 83 73 72 71 68 64 57 48 43 
   2   0   0   0   5   0   0   0   0   0   0   4   0   0   0   0   0   0   0  10   0   0   0   0   0   0   0   6   0   0   0  18 99 96 95 92 91 90 88 83 80 71 70 69 68 64 60 53 43 42 
  10   0   0   7   0   0   8   6   0   0   0   6   0   0   9   0   0   0   0   0   0   0   0   8   0   0   0   0   0   0   0  14 100 99 98 97 88 86 70 68 67 65 60 51 49 40 
  10   3   0   0   0   0   0   0   0   0   0   0   0   8   0   0   0   0   0   0   4   0   0   0   0   0   0   0   0   0   0  12 101 99 96 88 70 63 57 56 49 48 43 40 
   6   0   0   6   0   0   0   0   0   0   0   0   0   0   0   0   0   0   0   0  10   0   0   0   0   3   0   0   0   0   9  18 96 95 94 93 91 88 86 85 83 79 72 70 64 63 57 56 50 47 
   6   0   0   0   0   0   0   0   0   0   0   0   0   0   0   0   0   0   0   0   0   0   0   0   0   0   0   0   0   0   8  17 99 98 97 94 91 89 88 80 77 72 70 68 63 61 53 50 49 
   7   0   0   0   0   0   4   3   0   0   0   0   0   0   0   0   0   0   0   0   0   0   5   0   0   0   0   0   6   4   0  16 101 99 98 96 94 85 81 79 73 72 67 66 63 49 47 45 
  10   4   0   0   0   0   0   0   0   0   0   0   0   0   0   0   0   0   0   0   5   0   0   7   0   6   0   0   0   0   0  16 100 99 95 94 93 88 84 83 73 72 64 63 57 50 48 43 
   5   0   5   4   0   0   0   0   0   0   0   0   0   0   0   0   0   0   0   0   0   0   0   0   0   0   0   0   0   0   0  19 101 100 99 97 96 94 93 92 91 88 86 85 82 80 77 70 68 61 50 
   1   0   0   9   0   6   0   0   0   0   0   6   0   4   0   0   0   0   0   0   0   0   0   0   0   0   9   0   0   0   0  14 99 97 92 91 88 85 84 83 81 76 69 67 57 39 
   2   8   0   0   0   0   0   0   0   0   8   0   0   0   0   6   0   0   0   0   4   0   0   0   0   0   0   0   0   0   0  15 101 100 94 93 91 89 87 84 81 79 76 68 67 64 45 
   7   0   0   0   0   0   0   0   7   6   0   0   0   8   6   0   0   0   0   0   0   0   0   0   0   0   0   0   0   0   0  16 99 92 91 89 88 87 86 84 83 81 79 78 75 69 63 56 
  10   0   0   0   0   0   0   0   6   0   6   0   0   0   0   0   0   0   0   0   0   0   0   0   0   0   0   0   0   2   0  13 92 91 86 83 81 79 76 75 71 68 67 63 42 
   6   0   0   0   0   0   0   0   0   0   0   5   0   0   0   0   0   0   0   0   0   0   0   0   3   0   0   0   4   0   9  12 98 96 94 92 84 81 78 69 63 59 58 56 
   8   0   0   7   0   0   0   8   0   0   0   0   0   0   0   0   0   0   0   0   0   0   0   6   0   0   0   0   0   0   0  13 101 96 91 90 89 88 87 81 79 76 67 64 53 
   7   0   0   0   0   0   0   0   0   0   0   0   0   0   0   0   0   0   0   0   0   0   0   3   0   0   0   0   0   9   0   9 97 96 95 88 87 84 80 68 43 
   8   0   0   0   0   0   4   0   0   6   0   0   0   0   0   0   0   0   0   0   0   0   0   0   0   0   0   4   0   0   0  12 96 89 84 83 82 81 80 76 74 70 69 53 
   9   7   0   0   0   0   0   0   0   0   0   0   0   0   5   0   0   6   0   0   0   0   0   0   0   0   0   0   0   0   0  12 96 91 89 88 86 81 78 77 75 68 67 60 
   1   6   0   0   0   9   0   0   0   0   8   0   0   0   2   0   0   7   0   0   0   8   0   9   0   0   0   0   0   0   0  12 96 94 91 88 86 85 84 80 76 75 67 57 
   7   0   0   0   0   0   0   0   0   0   0   0   0   0   0   6   6   7   0   0   0   0   0   7   0   0   0   0   0   0   0  10 99 86 85 83 79 77 76 71 70 64 
  10   0   0   0   0   0   0   0   0   0   0   0   0   7   8   0   0   6   0   0   0   5   3   0  10   0   0   0   0   4   0  10 98 95 90 87 82 80 79 77 72 71 
   2   0   0   0   0   0   0   6   6   0   0   0   0   0   0   0   0  10   0   0   0   0   0   0   0   0   0   0   0   0   0  10 94 93 90 89 82 79 78 77 76 73 
   3   8   0   0   0   0   0   0   6   0   0   6   0   0   0   0   0   0   6   0   0   0   0   0   0   0   9   0   0   0   0   9 98 95 93 89 83 81 76 75 68 
   2   0   0   0   0   0   0   0   0   0   0   0   0   0   0   0   0   0   8   0   0   0   0   0   0   0   0   0   0   0   0   9 100 93 89 87 84 82 78 77 74 
   8   0   0   0   0   0   0   0   0   0   0   0   0   0   4   0   0   5   9   0   0   0   0   0   0   7   0   0   0   0   0   8 89 86 81 79 77 76 75 67 
   4   0   0   0   0   0   0   0   0   0   0   0   6   0   0   8   0   0   0   0   0   0   0   6   0   0   0   0   0   0   0   6 92 90 79 76 67 57 
   5   6   0   0   0   0   9   0   0   0   0   0   0   0   0   0   0   0   4   0   0   0   0   0   0   0   0  10   0   0   0   8 97 90 88 83 80 78 77 75 
  10   0   0   0   0   0   0  10   0   0   0   0   0   0   0   0   0   0   0   0   0   0   0   0   0   0   0   0   0   0   0   7 91 88 85 81 79 78 76 
   7   0   6   0   0   0   0   0   3   0   0   0   8   0   0   7   0   0   0   0   0   0   0   0   0   0   2   0   0   0   0   5 84 80 76 69 68 
   3   0   0   0   0   0   0   0   0   0   0   0   0   0   0   0   0   0   0   3   0   4   0   0   0   0   0   0   0   0   5   6 87 85 80 78 75 74 
   6   0   0   0   0   0   0   0   0   0   7   0   8   6   0   0   0   0   0   6   0   0   0   0   0   0   0   0   0   0   0   6 92 87 83 76 75 74 
   3   0   0   0   0   0   5   0   0   0   0   0   0   0   8   0   0   3   0   0   7   0   0   0   0   0   0   0   0   0   0   5 90 87 81 75 67 
   2   0   0   0   0   0   0   0   9   0   0   0   0   0   0   0   5   0   0   7   0   0   0   0   0   0   0   0   0   0   0   5 83 81 80 77 76 
   9   6  10   5   0   0   0   0   0   0   0   0   0   0   0   0   0   6   0   0   0   0   0   0   0   0   9   0   0   8   0   5 83 78 76 75 74 
   9   0   0   8   0   0   0   0   2   0   0   0   0   0   0   0   0   0   0   0   0   0   0   0   0   0   0   0   0   0   4   4 86 85 78 75 
  10   0   0   0   0   4   0   0   0   0   0   0   0   0   0   0   0   0   0   0   0   0   0   0   8   0   0   0   0  10   0   4 88 81 75 74 
   2   0   0   0   8   0   0   0   0   0   0   0   0   0   0   0   0   0   0   0   6   0   0   0   0   0   0   0   0   0   0   4 92 88 75 74 
   2   0   0   0   0   0   0   0   0   0   0   0   0   0   0   0   0   3   0   0   0   0   0   0   0   0   3   0   0   0   0   3 80 76 68 
   3   0   0   0   0   0   0   0   0   0   0   0   0   0   8   0   0   0   0   0   0   0   0   9   0   0   0   0   5   0   0   3 82 78 74 
   8   9   0   0   0   0   0   0   3   5   6   0   0   0   0   0   0   0   8   0   0   0   0   0   7   0   0   0   0   0   0   3 86 79 75 
   4   0   0   7   0   0   7   0   0   0   0   0   0   0   0   0   3   0   0   0   0   0   0   0   4   0   0   0   0   0   8   3 79 77 75 
  10   0   7   0   0   0   4   0   0   0   0   0   0   0   0   0   0   0   0   0   0   0   0   0   0   7   0   0   0   0   0   3 85 84 74 
   8   0   4   5   0   0   0   0   0   7   0   0   0   6   0   0   0   0   0   0   0   0   0   0   4   0   9   0   0   0   0   3 84 83 79 
  10   5   0   0   9   0   0   0   0   0   0   0   0   0   0   0   0   0   0   0   0   0   0   5   0   0   0   0   0   8   0   3 85 82 75 
   1   0   0   0   0   0  10   0   0   0   0   0   0   0   0   0   9   0   0   0   0   0   0   5   0   9   3   0   0   0   0   2 82 74 
   2   0   0   0   4   0   0   0   0   0   0   0   0   0   0   0   0   0   0   0   0   6   0   0   0   0   0   0   0   6   0   2 78 75 
   3   0   0   0   0   0   0   0   7   0   0   0   0   0   0   0   0   0   0   0   9   0   0   0   0   0   0   9   6   0   0   2 91 80 
   8   5   0   0   0   0   0   0   0   0   0   7   0   3   0   0   0   0   0   0   0   0   4   0  10   0   0   0   0   0   0   2 77 75 
   6   0   6   0   0   0   0   0   6   0   0   0   7   0   0   0   0   0   0   0   0   0   6   0   0   0   0   0   0   0   0   1 74 
   3   0   6   0   0   0   0   0   0   0   4   0   0   0   0   0   0   5   0   0   0   0   0   0   0   0   0   0   0   0   0   1 74 
   7  10   0   0   0   0   0   0   0   0   0   0   0   6   0   0   0   0   0   0   0   0   0   6   0   0   0   0   0   0   0   1 77 
   7   0   0   0   0   0   0   0   0   0   0   0   0   0   0   0   0   0  10  10   0   5   0   0   0   0   9   0   0   9   0   1 75 
  10   0   8   0   0   0   0   0   0   0   0   0   0   0   0   0   0   0   0   0   5   0   0   0   0   7   0   0   0   5   0   1 74 
   9   0   0   0   0   0   0   0   0   0   0   0   0   0   6   0   0   0   0   0   0   0   0   0  10   0   0   0   0   0   0   1 75 
   1   0   0   0   0   0   0   0   0  10   0   0   0   0   0   5   0   6   0   0   0   0   0   0   0   0   0   0   0   0   0   1 80 
   5   0   0   0   0   0   0   0   0   5   0   0   0   0   4   6   0   6   0   0   0   0   0   0   0   0   0   0   6   0   0   1 102
   7   0   0   0   0   0   0   0   0   0   0   0   7   3   0   0   0   0   0   0   0   0   0   0   0   0   0   0   0   0   0   1 102
   4   0   0   0   0   0   0   7   5   0   0   0   0   0   0   0   0   0   0   0   9   0   0   0   4   8   0   0   0   0   0   1 102
   3   0   0   0   0   0   0   0   0   0   6   0   0   7   0   0   0   0   0   0   0   0   0   0   5   0   0   0   9  10   0   1 102
   5   0   0   0   0   0   0   0   0   0   0   0   7   6   0   0   0   0   0   0   0   0   0   8   0   0   0   0   0   0   0   1 102
  10   0   0   0   0  10   0   0   8   0   0   0   0   0   0   0   0   0   0   0   0   0   0   0   0   0   0   0   0   0   0   1 102
   6   0   0   0   0   0   0   0   0   0   0   0   0   0   0   0   3   0   0   0   6   0  10   0   0   0   0   0   0   0   0   1 102
   7   0   0   6   0   0   0   0   0   5   0   0   0   9   0   0   6   7   0   0   0   6   0   0   3   0   0   0   0   6   7   1 102
   9   0   0   0   0   0   0   0   0   0   0   0   0   0   0   0   0   0   0   0   0   0   0   0   4   0   0   0   0   7   0   1 102
   8   0   0   0   0   8   3   0   0   0   7   5   0   0   0   0   7   0   0   0   0   0   0   9   0   0   0   0   0   0   0   1 102
   8   0   0   3   0   0   0   0   0   0   9   0   0   0   0   0   0   0   0   4   0   0   0   0   0   0   0   0   0   0   6   1 102
   7   0   0   6   0   0   4   0   0   0   0   0   0   0   4   0   0   0   0   0   7   0   0   0   6   0   0   0   0   0   0   1 102
   4   0   0   0   0   0   0   0   0   0   0   0   6   0   0   0   9   0   7   0   0  10   0   0   0   0   0   0   0   4   0   1 102
   5   4   0  10   0   0   0   0   0   0   5   0   0   9   0   0  10  10   0   0   0   0   5   4   0   0   0   0   0   0   0   1 102
   1   0   0   0   0   0   0   6   0   0   0   0   0   0   9   0   0   0   0   0   0   0   0   0   0   0   0   0   0   0   0   1 102
   2   0   0   0   0   0   5   0   0   0   0  10   0   0   0   0   0   0   0   0   0   0   0   5   0   0   0   0   8   0   0   1 102
   9   0   0   0   0   0   0   0   8   0   0   0   0   0   9   0   0   0   0   0   0   0   0   5   0   0   0   0   0   0   0   1 102
   4   3   0   0   0   4   0   0   0   0   0   0   0   0   0   0   0   0   0   0   0   0   0   0   0   0   0   0   7   0   0   1 102
   6   0   0   0   0   8   5   0   0   0   0   0   0   0   0   0   0   0   0   6   0   0   8   1   0   0   0   0   0   0   0   1 102
   5   0   0   7   0   0   0   0   0   0   0   0   0   0   0   0   0   0   0   0   0   0   0   6   0   0   0   0   5   0   0   1 102
  10   0   0   0   0   0   8   0   0   0   0   0   0   0   0   0   0   5   4   0   7   0   0   0   0   0   0   0   0   0   0   1 102
   4   0   0   0   0   0   0   0   0   0   0   0   0   0   0   0   0   9   0   0   0   0   0   0   0   0   0   0   0   0   0   1 102
   3   0   0   0   0   0   8   0   0   0   0   0   0   0   0   0   0   0   0   8   0   0   0   0   0   0   0   5   0   0   0   1 102
   3   0   0   0   0   0   0   0   0   0   0   0   0   0   0   0   0   0   0   0   0   0   0   0   0   0   0   0   0   0   3   1 102
   2   0   0   0   0   0   0   0  10   6   0   0   0   8   0   0   0   6   0   0   0   0   0   0   0   0   0   0   0   0   0   1 102
   8   0   0   5   0   5   0   0   0   0   0   0   0   0   0   0   0   0   0   6   0   0   0   0   0   0   0   0   0   0   0   1 102
   2   0   0   0   0   0   5   0   0   0   0   0   0   0   0   0   0   0   0   0   6   0   0   0   0   0   0   0   0   0   0   1 102
   7   0   0   0   0   0   0   6   0   0   7   0   0   0   0   0   0   0   0   0   0   9   0   0   0   0   0   0   6   0   0   1 102
   0   0   0   0   0   0   0   0   0   0   0   0   0   0   0   0   0   0   0   0   0   0   0   0   0   0   0   0   0   0   0   0 
